1111100 AB red
307 327 368 393 419 446 460 480 493 506 519 532 545 558 569 585 606 628 648 671 694 718 742 754 765 777 789 799 809 819 827 835 847 860 870 881 893 906 932 949 965 987 998 1071 1082 1104 1123 1141 1160 1180 1200 1236 1272 1292 1313 1334 1355 1376 1396 1416 1437 18
1111100 AB
348 381 406 433 470 975 1009 1039 1061 1093
1111100 BA red
300 320 280
0000011 AB red
307 328 392 452 492 512 532 555 578 601 625 647 669 685 701 717 737 753 769 785 801 815 829 843 857 871 886 907 931 953 965 990 1020 1080 1124 1148 1158 1191 1224 1252 1280 1304 1327 1348 1370 1392 1414 1435 16
0000011 AB
350 372 412 432 472 975 1005 1035 1065 1096
0000011 BA red
300 320 280
